NAME          DCAP_2_4_3_500_SS473
ROWS
 N  OBJ
 L  CON1
 L  CON2
 L  CON3
 L  CON4
 L  CON5
 L  CON6
 L  CON7
 L  CON8
 L  CON9
 L  CON10
 L  CON11
 L  CON12
 E  CON13
 E  CON14
 E  CON15
 E  CON16
 E  CON17
 E  CON18
 E  CON19
 E  CON20
 E  CON21
 E  CON22
 E  CON23
 E  CON24
COLUMNS
    x[1,1]    OBJ       6.180167      CON1      1.000000    
    x[1,1]    CON7      -1.000000     CON8      -1.000000   
    x[1,1]    CON9      -1.000000   
    x[1,2]    OBJ       6.563535      CON2      1.000000    
    x[1,2]    CON8      -1.000000     CON9      -1.000000   
    x[1,3]    OBJ       7.443064      CON3      1.000000    
    x[1,3]    CON9      -1.000000   
    x[2,1]    OBJ       6.732585      CON4      1.000000    
    x[2,1]    CON10     -1.000000     CON11     -1.000000   
    x[2,1]    CON12     -1.000000   
    x[2,2]    OBJ       5.039546      CON5      1.000000    
    x[2,2]    CON11     -1.000000     CON12     -1.000000   
    x[2,3]    OBJ       6.054841      CON6      1.000000    
    x[2,3]    CON12     -1.000000   
    MARKER    'MARKER'                'INTORG'
    u[1,1]    OBJ       48.076654     CON1      -1.000000   
    u[1,2]    OBJ       20.066487     CON2      -1.000000   
    u[1,3]    OBJ       32.230043     CON3      -1.000000   
    u[2,1]    OBJ       49.996186     CON4      -1.000000   
    u[2,2]    OBJ       49.466655     CON5      -1.000000   
    u[2,3]    OBJ       27.484319     CON6      -1.000000   
    y[1,1,1]  OBJ       9.785576      CON7      0.667391    
    y[1,1,1]  CON13     1.000000    
    y[1,1,2]  OBJ       8.610809      CON8      0.724380    
    y[1,1,2]  CON14     1.000000    
    y[1,1,3]  OBJ       5.906105      CON9      0.874665    
    y[1,1,3]  CON15     1.000000    
    y[1,2,1]  OBJ       9.830732      CON7      1.139862    
    y[1,2,1]  CON16     1.000000    
    y[1,2,2]  OBJ       7.841883      CON8      1.407565    
    y[1,2,2]  CON17     1.000000    
    y[1,2,3]  OBJ       7.577184      CON9      1.039557    
    y[1,2,3]  CON18     1.000000    
    y[1,3,1]  OBJ       8.438814      CON7      1.497232    
    y[1,3,1]  CON19     1.000000    
    y[1,3,2]  OBJ       6.103629      CON8      0.802456    
    y[1,3,2]  CON20     1.000000    
    y[1,3,3]  OBJ       9.450252      CON9      1.024484    
    y[1,3,3]  CON21     1.000000    
    y[1,4,1]  OBJ       9.829634      CON7      1.446051    
    y[1,4,1]  CON22     1.000000    
    y[1,4,2]  OBJ       5.095537      CON8      0.700448    
    y[1,4,2]  CON23     1.000000    
    y[1,4,3]  OBJ       6.196993      CON9      1.415734    
    y[1,4,3]  CON24     1.000000    
    y[2,1,1]  OBJ       7.497501      CON10     0.667391    
    y[2,1,1]  CON13     1.000000    
    y[2,1,2]  OBJ       7.416805      CON11     0.724380    
    y[2,1,2]  CON14     1.000000    
    y[2,1,3]  OBJ       9.808767      CON12     0.874665    
    y[2,1,3]  CON15     1.000000    
    y[2,2,1]  OBJ       9.510589      CON10     1.139862    
    y[2,2,1]  CON16     1.000000    
    y[2,2,2]  OBJ       9.802844      CON11     1.407565    
    y[2,2,2]  CON17     1.000000    
    y[2,2,3]  OBJ       7.321094      CON12     1.039557    
    y[2,2,3]  CON18     1.000000    
    y[2,3,1]  OBJ       9.765688      CON10     1.497232    
    y[2,3,1]  CON19     1.000000    
    y[2,3,2]  OBJ       8.101439      CON11     0.802456    
    y[2,3,2]  CON20     1.000000    
    y[2,3,3]  OBJ       5.607902      CON12     1.024484    
    y[2,3,3]  CON21     1.000000    
    y[2,4,1]  OBJ       5.484837      CON10     1.446051    
    y[2,4,1]  CON22     1.000000    
    y[2,4,2]  OBJ       5.014847      CON11     0.700448    
    y[2,4,2]  CON23     1.000000    
    y[2,4,3]  OBJ       6.157248      CON12     1.415734    
    y[2,4,3]  CON24     1.000000    
    z[1,1]    OBJ       705.343147    CON13     1.000000    
    z[1,2]    OBJ       820.365303    CON14     1.000000    
    z[1,3]    OBJ       776.134092    CON15     1.000000    
    z[2,1]    OBJ       837.062903    CON16     1.000000    
    z[2,2]    OBJ       807.994572    CON17     1.000000    
    z[2,3]    OBJ       777.162973    CON18     1.000000    
    z[3,1]    OBJ       561.763248    CON19     1.000000    
    z[3,2]    OBJ       524.842635    CON20     1.000000    
    z[3,3]    OBJ       859.088150    CON21     1.000000    
    z[4,1]    OBJ       981.181892    CON22     1.000000    
    z[4,2]    OBJ       752.772055    CON23     1.000000    
    z[4,3]    OBJ       636.159446    CON24     1.000000    
    MARKER    'MARKER'                 'INTEND'
RHS
    RHS       CON1      -0.000000     CON2      -0.000000   
    RHS       CON3      -0.000000     CON4      -0.000000   
    RHS       CON5      -0.000000     CON6      -0.000000   
    RHS       CON7      -0.000000     CON8      -0.000000   
    RHS       CON9      -0.000000     CON10     -0.000000   
    RHS       CON11     -0.000000     CON12     -0.000000   
    RHS       CON13     1.000000      CON14     1.000000    
    RHS       CON15     1.000000      CON16     1.000000    
    RHS       CON17     1.000000      CON18     1.000000    
    RHS       CON19     1.000000      CON20     1.000000    
    RHS       CON21     1.000000      CON22     1.000000    
    RHS       CON23     1.000000      CON24     1.000000    
BOUNDS
 BV BOUND     u[1,1]  
 BV BOUND     u[1,2]  
 BV BOUND     u[1,3]  
 BV BOUND     u[2,1]  
 BV BOUND     u[2,2]  
 BV BOUND     u[2,3]  
 BV BOUND     y[1,1,1]
 BV BOUND     y[1,1,2]
 BV BOUND     y[1,1,3]
 BV BOUND     y[1,2,1]
 BV BOUND     y[1,2,2]
 BV BOUND     y[1,2,3]
 BV BOUND     y[1,3,1]
 BV BOUND     y[1,3,2]
 BV BOUND     y[1,3,3]
 BV BOUND     y[1,4,1]
 BV BOUND     y[1,4,2]
 BV BOUND     y[1,4,3]
 BV BOUND     y[2,1,1]
 BV BOUND     y[2,1,2]
 BV BOUND     y[2,1,3]
 BV BOUND     y[2,2,1]
 BV BOUND     y[2,2,2]
 BV BOUND     y[2,2,3]
 BV BOUND     y[2,3,1]
 BV BOUND     y[2,3,2]
 BV BOUND     y[2,3,3]
 BV BOUND     y[2,4,1]
 BV BOUND     y[2,4,2]
 BV BOUND     y[2,4,3]
 BV BOUND     z[1,1]  
 BV BOUND     z[1,2]  
 BV BOUND     z[1,3]  
 BV BOUND     z[2,1]  
 BV BOUND     z[2,2]  
 BV BOUND     z[2,3]  
 BV BOUND     z[3,1]  
 BV BOUND     z[3,2]  
 BV BOUND     z[3,3]  
 BV BOUND     z[4,1]  
 BV BOUND     z[4,2]  
 BV BOUND     z[4,3]  
ENDATA
